p edge 32 160
e 1 5
e 1 16
e 1 22
e 1 27
e 1 32
e 2 1
e 2 10
e 2 12
e 2 14
e 2 19
e 3 4
e 3 6
e 3 14
e 3 23
e 3 30
e 4 10
e 4 22
e 4 27
e 4 31
e 4 32
e 5 19
e 5 21
e 5 24
e 5 26
e 5 28
e 6 15
e 6 24
e 6 25
e 6 27
e 6 32
e 7 2
e 7 14
e 7 19
e 7 19
e 7 23
e 8 2
e 8 5
e 8 13
e 8 14
e 8 26
e 9 14
e 9 16
e 9 17
e 9 21
e 9 27
e 10 3
e 10 4
e 10 5
e 10 14
e 10 19
e 11 7
e 11 13
e 11 17
e 11 22
e 11 24
e 12 3
e 12 6
e 12 15
e 12 29
e 12 30
e 13 11
e 13 16
e 13 17
e 13 26
e 13 29
e 14 1
e 14 6
e 14 19
e 14 31
e 14 32
e 15 3
e 15 11
e 15 26
e 15 30
e 15 30
e 16 2
e 16 2
e 16 2
e 16 13
e 16 22
e 17 8
e 17 8
e 17 13
e 17 19
e 17 25
e 18 4
e 18 10
e 18 14
e 18 30
e 18 32
e 19 10
e 19 10
e 19 25
e 19 25
e 19 30
e 20 10
e 20 23
e 20 27
e 20 28
e 20 29
e 21 11
e 21 13
e 21 20
e 21 20
e 21 30
e 22 2
e 22 4
e 22 11
e 22 18
e 22 19
e 23 11
e 23 11
e 23 12
e 23 18
e 23 30
e 24 1
e 24 3
e 24 22
e 24 27
e 24 27
e 25 3
e 25 13
e 25 17
e 25 19
e 25 26
e 26 13
e 26 13
e 26 22
e 26 24
e 26 30
e 27 3
e 27 11
e 27 23
e 27 30
e 27 32
e 28 5
e 28 8
e 28 8
e 28 14
e 28 19
e 29 9
e 29 10
e 29 17
e 29 18
e 29 25
e 30 2
e 30 5
e 30 10
e 30 11
e 30 31
e 31 3
e 31 5
e 31 8
e 31 14
e 31 24
e 32 2
e 32 3
e 32 15
e 32 20
e 32 25
